p cnf 34 54
-17 6 12 0 
-23 8 9 0 
-12 17 0 
-8 34 0 
-21 11 0 
-6 24 0 
-8 15 0 
-6 16 0 
-4 15 0 
-24 6 0 
-32 4 11 0 
-2 25 0 
-28 10 0 
-14 5 0 
-6 17 0 
-27 8 0 
-1 18 0 
-4 29 0 
-8 23 0 
-10 15 0 
-5 14 0 
-10 28 0 
-11 32 0 
-18 1 3 0 
-11 22 0 
-34 6 8 9 0 
-4 31 0 
-8 27 0 
-6 34 0 
-22 8 11 0 
-13 7 0 
-7 19 0 
-12 30 0 
-3 33 0 
-30 12 0 
-16 6 0 
-9 23 0 
-8 22 0 
-4 32 0 
-3 18 0 
-9 34 0 
-15 4 8 10 0 
-11 21 0 
-10 20 0 
-31 4 0 
-20 10 0 
-7 29 0 
-29 4 7 0 
-7 13 0 
-25 2 0 
-33 3 0 
-19 7 0 
-26 3 0 
-3 26 0 
